<?xml version = "1.0" standalone="yes"?>
<!-- This file has been generated by DOcplex version 2.23.222  -->
<CPLEXSolution version="1.0">
 <header
   problemName="CVRP"
   objectiveValue="9746.94"
  />
 <variables>
  <variable name="x_0_2" index="1" value="1.00000"/>
  <variable name="x_0_3" index="2" value="1.00000"/>
  <variable name="x_0_4" index="3" value="1.00000"/>
  <variable name="x_0_10" index="9" value="1.00000"/>
  <variable name="x_0_12" index="11" value="1.00000"/>
  <variable name="x_0_13" index="12" value="1.00000"/>
  <variable name="x_0_14" index="13" value="1.00000"/>
  <variable name="x_0_15" index="14" value="1.00000"/>
  <variable name="x_0_16" index="15" value="1.00000"/>
  <variable name="x_0_17" index="16" value="1.00000"/>
  <variable name="x_0_18" index="17" value="1.00000"/>
  <variable name="x_0_19" index="18" value="1.00000"/>
  <variable name="x_0_20" index="19" value="1.00000"/>
  <variable name="x_0_21" index="20" value="1.00000"/>
  <variable name="x_1_0" index="21" value="1.00000"/>
  <variable name="x_2_0" index="42" value="1.00000"/>
  <variable name="x_3_11" index="73" value="1.00000"/>
  <variable name="x_4_0" index="84" value="1.00000"/>
  <variable name="x_5_0" index="105" value="1.00000"/>
  <variable name="x_6_0" index="126" value="1.00000"/>
  <variable name="x_7_0" index="147" value="1.00000"/>
  <variable name="x_8_0" index="168" value="1.00000"/>
  <variable name="x_9_8" index="197" value="1.00000"/>
  <variable name="x_10_0" index="210" value="1.00000"/>
  <variable name="x_11_0" index="231" value="1.00000"/>
  <variable name="x_12_5" index="257" value="1.00000"/>
  <variable name="x_13_0" index="273" value="1.00000"/>
  <variable name="x_14_7" index="301" value="1.00000"/>
  <variable name="x_15_0" index="315" value="1.00000"/>
  <variable name="x_16_1" index="337" value="1.00000"/>
  <variable name="x_17_9" index="366" value="1.00000"/>
  <variable name="x_18_0" index="378" value="1.00000"/>
  <variable name="x_19_0" index="399" value="1.00000"/>
  <variable name="x_20_6" index="426" value="1.00000"/>
  <variable name="x_21_0" index="441" value="1.00000"/>
  <variable name="u_1" index="462" value="42.00000"/>
  <variable name="u_2" index="463" value="39.00000"/>
  <variable name="u_3" index="464" value="17.00000"/>
  <variable name="u_4" index="465" value="43.00000"/>
  <variable name="u_5" index="466" value="42.00000"/>
  <variable name="u_6" index="467" value="43.00000"/>
  <variable name="u_7" index="468" value="43.00000"/>
  <variable name="u_8" index="469" value="43.00000"/>
  <variable name="u_9" index="470" value="28.00000"/>
  <variable name="u_10" index="471" value="34.00000"/>
  <variable name="u_11" index="472" value="43.00000"/>
  <variable name="u_12" index="473" value="25.00000"/>
  <variable name="u_13" index="474" value="23.00000"/>
  <variable name="u_14" index="475" value="32.00000"/>
  <variable name="u_15" index="476" value="43.00000"/>
  <variable name="u_16" index="477" value="40.00000"/>
  <variable name="u_17" index="478" value="15.00000"/>
  <variable name="u_18" index="479" value="43.00000"/>
  <variable name="u_19" index="480" value="37.00000"/>
  <variable name="u_20" index="481" value="13.00000"/>
  <variable name="u_21" index="482" value="34.00000"/>
 </variables>
</CPLEXSolution>
